letting n_nurses=25
letting n_days=7
letting n_shift_types=4
letting max_covers=10
letting t_covers=61
letting covers=[10,3,2,0,1,0,0,0,5,6,0,0,9,2,2,0,5,6,0,0,0,0,0,0,7,1,2,0]
letting prefes=[1,1,1,4,1,4,3,2,1,1,1,4,1,4,3,2,1,1,1,4,1,1,1,4,1,4,3,2,3,2,3,1,1,4,3,2,3,2,3,1,1,4,3,2,3,2,3,1,3,2,3,1,1,4,3,2,1,2,1,4,4,1,3,2,1,2,1,4,4,1,3,2,1,2,1,4,1,2,1,4,4,1,3,2,3,1,1,4,1,4,3,2,3,1,1,4,1,4,3,2,3,1,1,4,3,1,1,4,1,4,3,2,3,2,1,4,1,4,4,3,3,2,1,4,1,4,4,3,3,2,1,4,3,2,1,4,1,4,4,3,1,2,1,1,1,4,4,3,1,2,1,1,1,4,4,3,1,2,1,1,1,2,1,1,1,4,4,3,3,2,3,4,1,4,4,3,3,2,3,4,1,4,4,3,3,2,3,4,3,2,3,4,1,4,4,3,3,2,1,4,1,4,4,2,3,2,1,4,1,4,4,2,3,2,1,4,3,2,1,4,1,4,4,2,3,1,1,4,3,1,4,2,3,1,1,4,3,1,4,2,3,1,1,4,3,1,1,4,3,1,4,2,3,2,1,4,2,4,4,3,3,2,1,4,2,4,4,3,3,2,1,4,3,2,1,4,2,4,4,3,3,2,1,4,1,4,4,2,3,2,1,4,1,4,4,2,3,2,1,4,3,2,1,4,1,4,4,2,3,1,1,1,1,4,4,2,3,1,1,1,1,4,4,2,3,1,1,1,3,1,1,1,1,4,4,2,1,2,1,4,1,4,4,3,1,2,1,4,1,4,4,3,1,2,1,4,1,2,1,4,1,4,4,3,3,2,3,4,1,4,4,2,3,2,3,4,1,4,4,2,3,2,3,4,3,2,3,4,1,4,4,2,3,2,1,4,1,4,4,2,3,2,1,4,1,4,4,2,3,2,1,4,3,2,1,4,1,4,4,2,3,2,1,4,1,4,4,2,3,2,1,4,1,4,4,2,3,2,1,4,3,2,1,4,1,4,4,2,3,2,1,4,1,4,4,2,3,2,1,4,1,4,4,2,3,2,1,4,3,2,1,4,1,4,4,2,3,2,1,4,1,4,4,2,3,2,1,4,1,4,4,2,3,2,1,4,3,2,1,4,1,4,4,2,3,2,1,4,1,4,4,2,3,2,1,4,1,4,4,2,3,2,1,4,3,2,1,4,1,4,4,2,3,2,1,4,4,1,4,2,3,2,1,4,4,1,4,2,3,2,1,4,3,2,1,4,4,1,4,2,1,2,1,1,1,1,3,2,1,2,1,1,1,1,3,2,1,2,1,1,1,2,1,1,1,1,3,2,3,2,1,4,1,4,4,2,3,2,1,4,1,4,4,2,3,2,1,4,3,2,1,4,1,4,4,2,3,2,3,4,1,4,4,2,3,2,3,4,1,4,4,2,3,2,3,4,3,2,3,4,1,4,4,2,3,2,3,4,1,4,4,2,3,2,3,4,1,4,4,2,3,2,3,4,3,2,3,4,1,4,4,2,3,1,1,1,3,1,4,2,3,1,1,1,3,1,4,2,3,1,1,1,3,1,1,1,3,1,4,2]
letting ub =  257
